LengthSchedulingHorizon=1719;
nAttributes=5;
SetupCosts=[[0, 0, 0, 0, 0], [18, 21, 23, 10, 8], [21, 16, 11, 11, 0], [23, 11, 18, 15, 17], [10, 11, 15, 20, 13], [8, 0, 17, 13, 24]];
SetupTimes=[[0, 0, 0, 0, 0], [5, 9, 23, 19, 9], [9, 9, 5, 10, 20], [23, 5, 5, 19, 12], [19, 10, 19, 22, 16], [9, 20, 12, 16, 3]];
nMachines=5;
MinCap=[0, 0, 0, 0, 0];
MaxCap=[7, 13, 18, 11, 18];

initState=[3, 2, 2, 5, 2];
nShifts=5;
ShiftStartTimes = [[0, 0, 0, 0, 75], [0, 0, 0, 0, 342], [101, 694, 860, 1106, 1434], [0, 0, 0, 64, 996], [369, 646, 803, 1240, 1394]];
ShiftEndTimes = [[0, 0, 0, 0, 1414], [0, 0, 0, 0, 1702], [692, 845, 1055, 1400, 1671], [0, 0, 0, 972, 1666], [634, 777, 1206, 1371, 1664]];
nJobs=10;
EligibleMachines = [{2, 3, 5}, {1, 2, 4, 5}, {2}, {2, 3, 4, 5}, {1, 3}, {1, 2, 3}, {1, 3, 4, 5}, {2, 5}, {1, 3}, {2, 3, 5}];
EarliestStart=[226, 385, 230, 360, 187, 56, 184, 270, 376, 288];
LatestEnd=[588, 731, 490, 557, 435, 440, 410, 435, 416, 377];
MinTime=[79, 71, 100, 82, 97, 92, 81, 89, 11, 68];
MaxTime=[96, 100, 100, 98, 99, 94, 97, 96, 19, 83];
JobSize=[2, 4, 3, 4, 3, 4, 2, 1, 1, 5];
Attribute=[2, 4, 1, 3, 4, 5, 2, 5, 2, 3];

upper_bound_integer_objective=2125200;
mult_factor_total_runtime=1104;
mult_factor_finished_toolate=85008;
mult_factor_total_setuptimes=0;
mult_factor_total_setupcosts=1771;
running_time_bound=770;
min_duration=11;
max_duration=100;
max_setup_time=23;
max_setup_cost=24;
